 &control
    calculation='scf'
    restart_mode='from_scratch'
    pseudo_dir   = './'
    outdir       = './'
    prefix = 'C'
    verbosity='high'
    forc_conv_thr = 0.01D-6
    etot_conv_thr = 1D-5
 /
 &system
    ibrav = 0
    nat = 8
    ntyp = 1
    ecutwfc = 90
    occupations='smearing',
    degauss=0.005
    input_dft = 'pbe'
    nosym = .TRUE.,
 /
 &electrons
    conv_thr = 1.0e-8
    electron_maxstep = 1000
    mixing_beta = 0.2
    diagonalization='cg',
 /
 ATOMIC_SPECIES
 C 12 C.1.UPF

 K_POINTS {automatic}
 12 12 12  0 0 0

ATOMIC_POSITIONS (crystal)
C 0.250000 0.750000 0.250000 
C 0.000000 0.000000 0.500000 
C 0.250000 0.250000 0.750000 
C 0.000000 0.500000 0.000000 
C 0.750000 0.750000 0.750000 
C 0.500000 0.000000 0.000000 
C 0.750000 0.250000 0.250000 
C 0.500000 0.500000 0.500000 


CELL_PARAMETERS {Angstrom}
3.573710 0.000000 0.000000
0.000000 3.573710 0.000000
0.000000 0.000000 3.573710
