&BANDS
  prefix = 'C'
  outdir = '.'
  filband = 'C_bands.dat'
/
