&DOS
  prefix='C',
  outdir='./',
  fildos='C.dos.dat',
  emin=-30.0,
  emax=30.0
/

